p cnf 140 640
1 -73 0
1 -74 0
73 -73 0
74 -74 0
19 -77 0
19 -78 0
77 -77 0
78 -78 0
37 -81 0
37 -82 0
81 -81 0
82 -82 0
55 -85 0
55 -86 0
85 -85 0
86 -86 0
2 -89 -73 0
-2 89 -73 0
2 89 -74 0
-2 -89 -74 0
20 -89 -77 0
-20 89 -77 0
20 89 -78 0
-20 -89 -78 0
38 -89 -81 0
-38 89 -81 0
38 89 -82 0
-38 -89 -82 0
56 -89 -85 0
-56 89 -85 0
56 89 -86 0
-56 -89 -86 0
3 -73 0
3 -74 0
73 -73 0
74 -74 0
21 -77 0
21 -78 0
77 -77 0
78 -78 0
39 -81 0
39 -82 0
81 -81 0
82 -82 0
57 -85 0
57 -86 0
85 -85 0
86 -86 0
4 -73 0
4 -74 0
73 -73 0
74 -74 0
22 -77 0
22 -78 0
77 -77 0
78 -78 0
40 -81 0
40 -82 0
81 -81 0
82 -82 0
58 -85 0
58 -86 0
85 -85 0
86 -86 0
5 -73 0
5 -74 0
73 -73 0
74 -74 0
23 -77 0
23 -78 0
77 -77 0
78 -78 0
41 -81 0
41 -82 0
81 -81 0
82 -82 0
59 -85 0
59 -86 0
85 -85 0
86 -86 0
6 -90 -73 0
-6 90 -73 0
6 90 -74 0
-6 -90 -74 0
24 -90 -77 0
-24 90 -77 0
24 90 -78 0
-24 -90 -78 0
42 -90 -81 0
-42 90 -81 0
42 90 -82 0
-42 -90 -82 0
60 -90 -85 0
-60 90 -85 0
60 90 -86 0
-60 -90 -86 0
7 -91 -73 0
-7 91 -73 0
7 91 -74 0
-7 -91 -74 0
25 -91 -77 0
-25 91 -77 0
25 91 -78 0
-25 -91 -78 0
43 -91 -81 0
-43 91 -81 0
43 91 -82 0
-43 -91 -82 0
61 -91 -85 0
-61 91 -85 0
61 91 -86 0
-61 -91 -86 0
8 -92 -73 0
-8 92 -73 0
8 92 -74 0
-8 -92 -74 0
26 -92 -77 0
-26 92 -77 0
26 92 -78 0
-26 -92 -78 0
44 -92 -81 0
-44 92 -81 0
44 92 -82 0
-44 -92 -82 0
62 -92 -85 0
-62 92 -85 0
62 92 -86 0
-62 -92 -86 0
9 -73 0
9 -74 0
73 -73 0
74 -74 0
27 -77 0
27 -78 0
77 -77 0
78 -78 0
45 -81 0
45 -82 0
81 -81 0
82 -82 0
63 -85 0
63 -86 0
85 -85 0
86 -86 0
10 -73 0
10 -74 0
73 -73 0
74 -74 0
28 -77 0
28 -78 0
77 -77 0
78 -78 0
46 -81 0
46 -82 0
81 -81 0
82 -82 0
64 -85 0
64 -86 0
85 -85 0
86 -86 0
11 -73 0
11 -74 0
73 -73 0
74 -74 0
29 -77 0
29 -78 0
77 -77 0
78 -78 0
47 -81 0
47 -82 0
81 -81 0
82 -82 0
65 -85 0
65 -86 0
85 -85 0
86 -86 0
12 -93 -73 0
-12 93 -73 0
12 93 -74 0
-12 -93 -74 0
30 -93 -77 0
-30 93 -77 0
30 93 -78 0
-30 -93 -78 0
48 -93 -81 0
-48 93 -81 0
48 93 -82 0
-48 -93 -82 0
66 -93 -85 0
-66 93 -85 0
66 93 -86 0
-66 -93 -86 0
-13 -73 0
-13 -74 0
73 -73 0
74 -74 0
-31 -77 0
-31 -78 0
77 -77 0
78 -78 0
-49 -81 0
-49 -82 0
81 -81 0
82 -82 0
-67 -85 0
-67 -86 0
85 -85 0
86 -86 0
14 -73 0
14 -74 0
73 -73 0
74 -74 0
32 -77 0
32 -78 0
77 -77 0
78 -78 0
50 -81 0
50 -82 0
81 -81 0
82 -82 0
68 -85 0
68 -86 0
85 -85 0
86 -86 0
15 -73 0
15 -74 0
73 -73 0
74 -74 0
33 -77 0
33 -78 0
77 -77 0
78 -78 0
51 -81 0
51 -82 0
81 -81 0
82 -82 0
69 -85 0
69 -86 0
85 -85 0
86 -86 0
16 -94 -73 0
-16 94 -73 0
16 94 -74 0
-16 -94 -74 0
34 -94 -77 0
-34 94 -77 0
34 94 -78 0
-34 -94 -78 0
52 -94 -81 0
-52 94 -81 0
52 94 -82 0
-52 -94 -82 0
70 -94 -85 0
-70 94 -85 0
70 94 -86 0
-70 -94 -86 0
17 -73 0
17 -74 0
73 -73 0
74 -74 0
35 -77 0
35 -78 0
77 -77 0
78 -78 0
53 -81 0
53 -82 0
81 -81 0
82 -82 0
71 -85 0
71 -86 0
85 -85 0
86 -86 0
-18 -73 0
-18 -74 0
73 -73 0
74 -74 0
-36 -77 0
-36 -78 0
77 -77 0
78 -78 0
-54 -81 0
-54 -82 0
81 -81 0
82 -82 0
-72 -85 0
-72 -86 0
85 -85 0
86 -86 0
-125 73 0
125 -73 0
-126 74 0
125 -74 0
-125 -73 0
-126 -74 0
-129 73 125 0
129 -73 0
129 -125 0
-130 74 126 0
130 -74 0
130 -126 0
-129 -77 0
-130 -78 0
-133 77 129 0
133 -77 0
133 -129 0
-134 78 130 0
134 -78 0
134 -130 0
-133 -81 0
-134 -82 0
-137 81 133 0
137 -81 0
137 -133 0
-138 82 134 0
138 -82 0
138 -134 0
-137 -85 0
-138 -86 0
137 0
138 0
1 -75 0
1 -76 0
75 -75 0
76 -76 0
19 -79 0
19 -80 0
79 -79 0
80 -80 0
37 -83 0
37 -84 0
83 -83 0
84 -84 0
55 -87 0
55 -88 0
87 -87 0
88 -88 0
2 -75 0
2 -76 0
75 -75 0
76 -76 0
20 -79 0
20 -80 0
79 -79 0
80 -80 0
38 -83 0
38 -84 0
83 -83 0
84 -84 0
56 -87 0
56 -88 0
87 -87 0
88 -88 0
3 -75 0
3 -76 0
75 -75 0
76 -76 0
21 -79 0
21 -80 0
79 -79 0
80 -80 0
39 -83 0
39 -84 0
83 -83 0
84 -84 0
57 -87 0
57 -88 0
87 -87 0
88 -88 0
4 -75 0
4 -76 0
75 -75 0
76 -76 0
22 -79 0
22 -80 0
79 -79 0
80 -80 0
40 -83 0
40 -84 0
83 -83 0
84 -84 0
58 -87 0
58 -88 0
87 -87 0
88 -88 0
5 -75 0
5 -76 0
75 -75 0
76 -76 0
23 -79 0
23 -80 0
79 -79 0
80 -80 0
41 -83 0
41 -84 0
83 -83 0
84 -84 0
59 -87 0
59 -88 0
87 -87 0
88 -88 0
6 -75 0
6 -76 0
75 -75 0
76 -76 0
24 -79 0
24 -80 0
79 -79 0
80 -80 0
42 -83 0
42 -84 0
83 -83 0
84 -84 0
60 -87 0
60 -88 0
87 -87 0
88 -88 0
7 -95 -75 0
-7 95 -75 0
7 95 -76 0
-7 -95 -76 0
25 -95 -79 0
-25 95 -79 0
25 95 -80 0
-25 -95 -80 0
43 -95 -83 0
-43 95 -83 0
43 95 -84 0
-43 -95 -84 0
61 -95 -87 0
-61 95 -87 0
61 95 -88 0
-61 -95 -88 0
8 -96 -75 0
-8 96 -75 0
8 96 -76 0
-8 -96 -76 0
26 -96 -79 0
-26 96 -79 0
26 96 -80 0
-26 -96 -80 0
44 -96 -83 0
-44 96 -83 0
44 96 -84 0
-44 -96 -84 0
62 -96 -87 0
-62 96 -87 0
62 96 -88 0
-62 -96 -88 0
9 -75 0
9 -76 0
75 -75 0
76 -76 0
27 -79 0
27 -80 0
79 -79 0
80 -80 0
45 -83 0
45 -84 0
83 -83 0
84 -84 0
63 -87 0
63 -88 0
87 -87 0
88 -88 0
10 -97 -75 0
-10 97 -75 0
10 97 -76 0
-10 -97 -76 0
28 -97 -79 0
-28 97 -79 0
28 97 -80 0
-28 -97 -80 0
46 -97 -83 0
-46 97 -83 0
46 97 -84 0
-46 -97 -84 0
64 -97 -87 0
-64 97 -87 0
64 97 -88 0
-64 -97 -88 0
11 -75 0
11 -76 0
75 -75 0
76 -76 0
29 -79 0
29 -80 0
79 -79 0
80 -80 0
47 -83 0
47 -84 0
83 -83 0
84 -84 0
65 -87 0
65 -88 0
87 -87 0
88 -88 0
-12 -75 0
-12 -76 0
75 -75 0
76 -76 0
-30 -79 0
-30 -80 0
79 -79 0
80 -80 0
-48 -83 0
-48 -84 0
83 -83 0
84 -84 0
-66 -87 0
-66 -88 0
87 -87 0
88 -88 0
-13 -75 0
-13 -76 0
75 -75 0
76 -76 0
-31 -79 0
-31 -80 0
79 -79 0
80 -80 0
-49 -83 0
-49 -84 0
83 -83 0
84 -84 0
-67 -87 0
-67 -88 0
87 -87 0
88 -88 0
14 -98 -75 0
-14 98 -75 0
14 98 -76 0
-14 -98 -76 0
32 -98 -79 0
-32 98 -79 0
32 98 -80 0
-32 -98 -80 0
50 -98 -83 0
-50 98 -83 0
50 98 -84 0
-50 -98 -84 0
68 -98 -87 0
-68 98 -87 0
68 98 -88 0
-68 -98 -88 0
15 -75 0
15 -76 0
75 -75 0
76 -76 0
33 -79 0
33 -80 0
79 -79 0
80 -80 0
51 -83 0
51 -84 0
83 -83 0
84 -84 0
69 -87 0
69 -88 0
87 -87 0
88 -88 0
16 -75 0
16 -76 0
75 -75 0
76 -76 0
34 -79 0
34 -80 0
79 -79 0
80 -80 0
52 -83 0
52 -84 0
83 -83 0
84 -84 0
70 -87 0
70 -88 0
87 -87 0
88 -88 0
17 -99 -75 0
-17 99 -75 0
17 99 -76 0
-17 -99 -76 0
35 -99 -79 0
-35 99 -79 0
35 99 -80 0
-35 -99 -80 0
53 -99 -83 0
-53 99 -83 0
53 99 -84 0
-53 -99 -84 0
71 -99 -87 0
-71 99 -87 0
71 99 -88 0
-71 -99 -88 0
18 -100 -75 0
-18 100 -75 0
18 100 -76 0
-18 -100 -76 0
36 -100 -79 0
-36 100 -79 0
36 100 -80 0
-36 -100 -80 0
54 -100 -83 0
-54 100 -83 0
54 100 -84 0
-54 -100 -84 0
72 -100 -87 0
-72 100 -87 0
72 100 -88 0
-72 -100 -88 0
-127 75 0
127 -75 0
-128 76 0
127 -76 0
-127 -75 0
-128 -76 0
-131 75 127 0
131 -75 0
131 -127 0
-132 76 128 0
132 -76 0
132 -128 0
-131 -79 0
-132 -80 0
-135 79 131 0
135 -79 0
135 -131 0
-136 80 132 0
136 -80 0
136 -132 0
-135 -83 0
-136 -84 0
-139 83 135 0
139 -83 0
139 -135 0
-140 84 136 0
140 -84 0
140 -136 0
-139 -87 0
-140 -88 0
139 0
140 0
